NAME: cuum680.tsp
TYPE: TSP
COMMENT: User-generated TSP file
DIMENSION: 680
EDGE_WEIGHT_TYPE: EUC_2D
NODE_COORD_SECTION
1 375.0 36.0
2 116.0 12.0
3 487.0 408.0
4 586.0 225.0
5 71.0 449.0
6 128.0 221.0
7 429.0 149.0
8 252.0 405.0
9 189.0 443.0
10 381.0 643.0
11 429.0 74.0
12 15.0 249.0
13 468.0 588.0
14 94.0 573.0
15 440.0 505.0
16 402.0 36.0
17 524.0 138.0
18 498.0 366.0
19 61.0 217.0
20 653.0 267.0
21 468.0 584.0
22 321.0 284.0
23 87.0 608.0
24 26.0 45.0
25 65.0 92.0
26 342.0 457.0
27 263.0 396.0
28 642.0 383.0
29 628.0 244.0
30 474.0 675.0
31 139.0 215.0
32 181.0 40.0
33 544.0 564.0
34 592.0 547.0
35 4.0 392.0
36 175.0 294.0
37 302.0 445.0
38 117.0 89.0
39 121.0 375.0
40 450.0 198.0
41 15.0 409.0
42 318.0 522.0
43 556.0 265.0
44 639.0 54.0
45 504.0 162.0
46 461.0 208.0
47 304.0 75.0
48 641.0 531.0
49 46.0 406.0
50 210.0 267.0
51 273.0 231.0
52 482.0 372.0
53 68.0 537.0
54 659.0 592.0
55 375.0 490.0
56 171.0 288.0
57 235.0 557.0
58 269.0 443.0
59 86.0 353.0
60 546.0 457.0
61 520.0 395.0
62 368.0 35.0
63 343.0 124.0
64 543.0 329.0
65 52.0 254.0
66 106.0 607.0
67 447.0 60.0
68 193.0 678.0
69 349.0 214.0
70 673.0 27.0
71 666.0 662.0
72 175.0 487.0
73 152.0 491.0
74 91.0 265.0
75 656.0 454.0
76 339.0 181.0
77 115.0 457.0
78 340.0 325.0
79 383.0 63.0
80 542.0 110.0
81 530.0 570.0
82 57.0 427.0
83 228.0 335.0
84 259.0 204.0
85 218.0 277.0
86 670.0 272.0
87 623.0 331.0
88 560.0 521.0
89 506.0 303.0
90 320.0 547.0
91 622.0 21.0
92 55.0 39.0
93 567.0 546.0
94 366.0 410.0
95 22.0 516.0
96 313.0 387.0
97 337.0 74.0
98 81.0 399.0
99 404.0 515.0
100 355.0 606.0
101 466.0 263.0
102 73.0 357.0
103 11.0 579.0
104 421.0 526.0
105 320.0 360.0
106 595.0 164.0
107 481.0 137.0
108 183.0 133.0
109 466.0 140.0
110 81.0 489.0
111 455.0 615.0
112 277.0 247.0
113 280.0 125.0
114 493.0 182.0
115 260.0 436.0
116 312.0 8.0
117 73.0 182.0
118 217.0 238.0
119 473.0 68.0
120 1.0 567.0
121 519.0 428.0
122 71.0 565.0
123 39.0 173.0
124 517.0 500.0
125 487.0 368.0
126 75.0 422.0
127 149.0 602.0
128 93.0 188.0
129 381.0 419.0
130 26.0 263.0
131 200.0 620.0
132 657.0 323.0
133 384.0 4.0
134 353.0 303.0
135 601.0 217.0
136 42.0 297.0
137 563.0 573.0
138 565.0 210.0
139 441.0 127.0
140 647.0 178.0
141 326.0 386.0
142 528.0 219.0
143 201.0 163.0
144 598.0 16.0
145 668.0 413.0
146 223.0 161.0
147 185.0 620.0
148 470.0 393.0
149 590.0 73.0
150 166.0 452.0
151 473.0 658.0
152 500.0 56.0
153 420.0 405.0
154 448.0 25.0
155 89.0 404.0
156 625.0 207.0
157 91.0 530.0
158 659.0 434.0
159 165.0 99.0
160 594.0 116.0
161 120.0 301.0
162 260.0 621.0
163 669.0 553.0
164 443.0 450.0
165 141.0 202.0
166 250.0 369.0
167 344.0 367.0
168 303.0 147.0
169 373.0 255.0
170 467.0 661.0
171 318.0 417.0
172 442.0 206.0
173 632.0 283.0
174 208.0 7.0
175 463.0 171.0
176 550.0 180.0
177 456.0 522.0
178 622.0 376.0
179 102.0 252.0
180 679.0 54.0
181 369.0 319.0
182 227.0 673.0
183 572.0 591.0
184 461.0 431.0
185 378.0 674.0
186 162.0 46.0
187 300.0 128.0
188 247.0 285.0
189 520.0 574.0
190 415.0 405.0
191 582.0 156.0
192 68.0 372.0
193 32.0 236.0
194 277.0 33.0
195 556.0 661.0
196 361.0 55.0
197 283.0 474.0
198 320.0 635.0
199 381.0 307.0
200 620.0 496.0
201 214.0 221.0
202 656.0 434.0
203 645.0 141.0
204 64.0 138.0
205 185.0 410.0
206 269.0 71.0
207 87.0 49.0
208 527.0 392.0
209 297.0 348.0
210 581.0 231.0
211 226.0 66.0
212 466.0 307.0
213 364.0 380.0
214 171.0 616.0
215 264.0 256.0
216 352.0 166.0
217 398.0 428.0
218 553.0 448.0
219 626.0 59.0
220 647.0 340.0
221 565.0 484.0
222 47.0 430.0
223 665.0 188.0
224 62.0 164.0
225 472.0 63.0
226 588.0 151.0
227 366.0 137.0
228 493.0 158.0
229 336.0 37.0
230 607.0 261.0
231 196.0 262.0
232 179.0 533.0
233 117.0 148.0
234 133.0 439.0
235 451.0 287.0
236 181.0 307.0
237 177.0 164.0
238 38.0 168.0
239 362.0 331.0
240 15.0 158.0
241 579.0 538.0
242 26.0 169.0
243 88.0 182.0
244 248.0 56.0
245 411.0 73.0
246 366.0 169.0
247 519.0 469.0
248 85.0 605.0
249 142.0 42.0
250 71.0 194.0
251 157.0 123.0
252 159.0 526.0
253 540.0 164.0
254 304.0 186.0
255 630.0 54.0
256 343.0 405.0
257 313.0 74.0
258 468.0 540.0
259 563.0 627.0
260 328.0 457.0
261 524.0 268.0
262 568.0 670.0
263 562.0 25.0
264 620.0 7.0
265 265.0 294.0
266 266.0 108.0
267 294.0 627.0
268 502.0 381.0
269 11.0 657.0
270 672.0 577.0
271 285.0 234.0
272 176.0 664.0
273 427.0 217.0
274 436.0 576.0
275 614.0 516.0
276 485.0 434.0
277 297.0 655.0
278 491.0 563.0
279 331.0 604.0
280 429.0 5.0
281 587.0 360.0
282 84.0 71.0
283 668.0 621.0
284 286.0 492.0
285 17.0 368.0
286 185.0 273.0
287 449.0 538.0
288 675.0 639.0
289 433.0 541.0
290 63.0 65.0
291 542.0 122.0
292 464.0 244.0
293 151.0 119.0
294 79.0 65.0
295 140.0 616.0
296 25.0 539.0
297 172.0 395.0
298 253.0 88.0
299 111.0 184.0
300 604.0 137.0
301 57.0 306.0
302 70.0 392.0
303 458.0 475.0
304 152.0 496.0
305 504.0 555.0
306 674.0 540.0
307 564.0 101.0
308 648.0 121.0
309 311.0 670.0
310 402.0 339.0
311 512.0 244.0
312 308.0 278.0
313 680.0 589.0
314 273.0 553.0
315 479.0 299.0
316 565.0 589.0
317 398.0 478.0
318 632.0 250.0
319 345.0 636.0
320 198.0 253.0
321 392.0 179.0
322 231.0 234.0
323 191.0 577.0
324 467.0 678.0
325 402.0 463.0
326 115.0 669.0
327 639.0 208.0
328 550.0 366.0
329 397.0 639.0
330 259.0 252.0
331 543.0 15.0
332 666.0 512.0
333 674.0 14.0
334 551.0 115.0
335 571.0 650.0
336 354.0 54.0
337 534.0 639.0
338 208.0 78.0
339 223.0 86.0
340 563.0 574.0
341 122.0 518.0
342 248.0 236.0
343 216.0 235.0
344 605.0 59.0
345 507.0 353.0
346 651.0 108.0
347 116.0 241.0
348 26.0 30.0
349 85.0 623.0
350 539.0 27.0
351 126.0 301.0
352 491.0 121.0
353 458.0 231.0
354 455.0 155.0
355 276.0 233.0
356 386.0 166.0
357 439.0 366.0
358 380.0 425.0
359 196.0 329.0
360 675.0 83.0
361 124.0 379.0
362 206.0 209.0
363 157.0 142.0
364 215.0 377.0
365 334.0 620.0
366 258.0 434.0
367 523.0 252.0
368 198.0 518.0
369 285.0 57.0
370 138.0 566.0
371 350.0 229.0
372 457.0 329.0
373 579.0 667.0
374 315.0 37.0
375 420.0 382.0
376 547.0 518.0
377 111.0 677.0
378 624.0 629.0
379 18.0 575.0
380 680.0 109.0
381 180.0 470.0
382 24.0 411.0
383 119.0 27.0
384 335.0 493.0
385 284.0 295.0
386 392.0 580.0
387 151.0 679.0
388 474.0 331.0
389 31.0 308.0
390 468.0 450.0
391 398.0 527.0
392 598.0 125.0
393 586.0 195.0
394 436.0 122.0
395 147.0 114.0
396 668.0 60.0
397 644.0 570.0
398 285.0 465.0
399 216.0 435.0
400 358.0 82.0
401 419.0 359.0
402 339.0 36.0
403 473.0 482.0
404 506.0 52.0
405 319.0 346.0
406 296.0 553.0
407 140.0 88.0
408 122.0 342.0
409 336.0 439.0
410 9.0 233.0
411 338.0 341.0
412 239.0 603.0
413 93.0 539.0
414 612.0 350.0
415 384.0 545.0
416 395.0 608.0
417 47.0 375.0
418 174.0 91.0
419 565.0 414.0
420 648.0 99.0
421 413.0 140.0
422 97.0 408.0
423 638.0 589.0
424 470.0 496.0
425 378.0 334.0
426 249.0 484.0
427 70.0 565.0
428 546.0 646.0
429 486.0 674.0
430 659.0 70.0
431 25.0 243.0
432 227.0 185.0
433 560.0 518.0
434 661.0 410.0
435 452.0 363.0
436 589.0 421.0
437 420.0 542.0
438 418.0 651.0
439 266.0 80.0
440 299.0 659.0
441 564.0 446.0
442 215.0 472.0
443 239.0 14.0
444 514.0 459.0
445 618.0 227.0
446 376.0 10.0
447 12.0 573.0
448 569.0 419.0
449 337.0 238.0
450 41.0 526.0
451 158.0 139.0
452 539.0 424.0
453 90.0 470.0
454 242.0 680.0
455 185.0 483.0
456 43.0 80.0
457 57.0 255.0
458 350.0 206.0
459 32.0 590.0
460 108.0 373.0
461 270.0 467.0
462 141.0 57.0
463 8.0 433.0
464 169.0 303.0
465 17.0 184.0
466 147.0 464.0
467 542.0 80.0
468 176.0 624.0
469 112.0 63.0
470 605.0 660.0
471 113.0 472.0
472 223.0 403.0
473 425.0 556.0
474 226.0 90.0
475 121.0 108.0
476 385.0 201.0
477 423.0 617.0
478 404.0 658.0
479 194.0 301.0
480 374.0 3.0
481 674.0 49.0
482 511.0 452.0
483 187.0 270.0
484 667.0 608.0
485 324.0 505.0
486 6.0 70.0
487 244.0 20.0
488 490.0 103.0
489 348.0 144.0
490 298.0 417.0
491 493.0 427.0
492 117.0 669.0
493 623.0 74.0
494 499.0 634.0
495 106.0 566.0
496 572.0 159.0
497 441.0 524.0
498 648.0 615.0
499 274.0 13.0
500 498.0 24.0
501 279.0 393.0
502 262.0 41.0
503 185.0 560.0
504 45.0 633.0
505 49.0 658.0
506 165.0 611.0
507 189.0 395.0
508 222.0 428.0
509 446.0 605.0
510 678.0 514.0
511 128.0 563.0
512 204.0 37.0
513 34.0 67.0
514 578.0 3.0
515 178.0 611.0
516 490.0 220.0
517 586.0 504.0
518 229.0 77.0
519 458.0 324.0
520 260.0 147.0
521 5.0 614.0
522 628.0 146.0
523 212.0 507.0
524 293.0 547.0
525 112.0 196.0
526 193.0 115.0
527 242.0 457.0
528 473.0 551.0
529 239.0 498.0
530 652.0 499.0
531 64.0 399.0
532 43.0 171.0
533 375.0 339.0
534 527.0 40.0
535 310.0 257.0
536 648.0 623.0
537 642.0 562.0
538 281.0 235.0
539 103.0 672.0
540 172.0 352.0
541 165.0 536.0
542 631.0 251.0
543 528.0 74.0
544 413.0 151.0
545 480.0 481.0
546 203.0 229.0
547 464.0 505.0
548 578.0 456.0
549 680.0 28.0
550 72.0 23.0
551 576.0 311.0
552 466.0 357.0
553 502.0 257.0
554 530.0 540.0
555 445.0 252.0
556 222.0 22.0
557 6.0 74.0
558 537.0 47.0
559 545.0 201.0
560 101.0 114.0
561 680.0 255.0
562 295.0 264.0
563 672.0 444.0
564 524.0 473.0
565 615.0 610.0
566 370.0 453.0
567 250.0 312.0
568 379.0 544.0
569 585.0 220.0
570 457.0 116.0
571 519.0 29.0
572 318.0 256.0
573 222.0 568.0
574 90.0 529.0
575 116.0 231.0
576 149.0 518.0
577 432.0 370.0
578 612.0 494.0
579 166.0 607.0
580 371.0 519.0
581 547.0 63.0
582 398.0 667.0
583 570.0 238.0
584 411.0 52.0
585 265.0 621.0
586 570.0 399.0
587 224.0 370.0
588 282.0 461.0
589 510.0 584.0
590 103.0 576.0
591 648.0 671.0
592 72.0 183.0
593 245.0 350.0
594 386.0 567.0
595 219.0 197.0
596 347.0 557.0
597 569.0 181.0
598 417.0 69.0
599 12.0 397.0
600 33.0 36.0
601 464.0 305.0
602 116.0 38.0
603 264.0 668.0
604 129.0 178.0
605 115.0 65.0
606 580.0 631.0
607 47.0 398.0
608 627.0 445.0
609 5.0 43.0
610 270.0 81.0
611 502.0 680.0
612 548.0 202.0
613 475.0 375.0
614 85.0 36.0
615 414.0 112.0
616 26.0 93.0
617 635.0 589.0
618 337.0 563.0
619 605.0 20.0
620 313.0 9.0
621 143.0 629.0
622 579.0 170.0
623 456.0 340.0
624 427.0 546.0
625 608.0 176.0
626 4.0 110.0
627 329.0 392.0
628 407.0 573.0
629 30.0 204.0
630 275.0 133.0
631 189.0 287.0
632 166.0 620.0
633 470.0 570.0
634 75.0 643.0
635 421.0 123.0
636 234.0 151.0
637 500.0 116.0
638 182.0 607.0
639 412.0 34.0
640 134.0 403.0
641 158.0 440.0
642 650.0 146.0
643 278.0 65.0
644 297.0 13.0
645 657.0 31.0
646 483.0 250.0
647 189.0 9.0
648 491.0 637.0
649 104.0 257.0
650 69.0 171.0
651 630.0 389.0
652 309.0 315.0
653 182.0 411.0
654 345.0 345.0
655 275.0 651.0
656 361.0 515.0
657 41.0 592.0
658 78.0 664.0
659 289.0 414.0
660 218.0 18.0
661 456.0 632.0
662 120.0 427.0
663 395.0 437.0
664 271.0 480.0
665 401.0 669.0
666 47.0 197.0
667 284.0 642.0
668 584.0 241.0
669 169.0 221.0
670 388.0 408.0
671 36.0 243.0
672 325.0 668.0
673 480.0 568.0
674 149.0 549.0
675 355.0 412.0
676 337.0 500.0
677 19.0 298.0
678 94.0 185.0
679 551.0 314.0
680 367.0 475.0
EOF





